param set_len = 16;
param target_sum = 2025618;
param values := [1] 397245 [2] 521123 [3] 95821 [4] 382365 [5] 316882 [6] 360655 [7] 164183 [8] 210576 [9] 410103 [10] 112735 [11] 189603 [12] 166340 [13] 483268 [14] 362309 [15] 520153 [16] 320652 ;
